1111100 AB red
315 341 382 422
1111100 BA
330 356 383 397 411 425 437 444 452 462 472 482 493 502 509 518 527 537 547 557 573 589 604 619 635 651 666 681 697 713 728 743 759 775 785 796 806 816 826 837 847 863 878 890 902 915 928 940 953 966 979 993 1004 1017 1027 1037 1047 1057 1069 1081 1094 1107 1120 1132 1142 1151 1161 1171 1182 1194 1210 1226 1243 1259 1272 1287 1313 1340 1365 1392 1418 4 30 57
1111100 BA red
485
0000011 AB red
315 340 440
0000011 BA
330 355 383 410 439 455 471 501 517 532 547 563 579 599 620 641 661 682 697 712 727 743 759 780 801 821 842 858 873 889 905 921 936 952 967 983 998 1014 1029 1045 1060 1076 1091 1107 1128 1148 1169 1190 1211 1234 1257 1271 1287 1313 1340 1365 1392 1418 4 30 56
